172
300
210	2
209	3
208	3
207	2
206	4
205	1
204	2
203	2
202	3
201	3
200	4
199	2
198	1
197	2
196	5
195	1
193	2
192	1
191	2
190	5
189	1
188	3
187	5
186	4
184	4
183	1
182	1
181	8
180	2
179	6
178	1
177	3
176	2
175	1
174	3
173	3
172	3
171	5
170	1
169	3
168	2
166	2
165	2
164	1
163	1
162	3
161	1
160	3
159	1
158	3
157	2
156	3
155	4
154	5
153	3
152	5
151	4
150	1
149	4
148	6
147	1
146	2
145	4
144	2
143	2
142	5
141	1
140	3
139	3
138	4
137	1
136	4
135	1
134	4
132	4
131	3
130	2
129	2
128	2
127	1
126	3
125	1
124	2
123	2
122	5
121	1
120	4
119	3
118	2
117	5
116	1
115	1
114	2
113	3
112	3
111	5
110	5
109	4
107	2
106	5
105	4
104	8
103	3
102	2
101	2
100	2
99	2
98	4
97	4
96	2
95	1
94	5
93	7
92	2
91	3
90	2
89	4
88	1
87	5
85	3
84	2
83	2
82	1
81	5
80	2
79	3
78	4
77	6
76	2
75	4
74	6
73	1
72	3
71	2
70	2
69	5
68	4
67	5
66	5
65	1
64	3
63	8
62	4
61	1
60	2
59	6
58	3
57	3
56	4
55	3
54	3
52	3
51	1
50	1
49	2
48	1
47	2
46	2
45	2
44	3
43	4
42	4
41	2
40	3
39	3
38	4
37	4
36	2
35	2
34	2
32	3
30	3
